(set-logic UFLIA)
(declare-fun a () Bool)
(declare-fun b () Bool)
(declare-fun c () Bool)
(declare-fun w () Bool)
(declare-fun x () Bool)
(declare-fun y () Bool)
(declare-fun z () Bool)
(assert (or a b (or c (and w x (and y z)))))
(assert (not (or a b c (and w x y z))))
(check-sat)
(exit)
